g3 0 1 0	# problem ex8_3_14
 110 71 1 0 71	# vars, constraints, objectives, ranges, eqns
 54 0	# nonlinear constraints, objectives
 0 0	# network constraints: nonlinear, linear
 105 0 0	# nonlinear vars in constraints, objectives, both
 0 0 0 1	# linear network variables; functions; arith, flags
 0 0 0 0 0	# discrete variables: binary, integer, nonlinear (b,c,o)
 579 1	# nonzeros in Jacobian, gradients
 0 0	# max name lengths: constraints, variables
 0 0 0 0 0	# common exprs: b,c,o,c1,o1
b
0 0 10000
0 0 10000
0 0 10000
0 0 10000
0 0 10000
0 0 100
0 0 100
0 0 100
0 0 100
0 0 100
0 0 100
0 0 100
0 0 100
0 0 100
0 0 100
0 0 100
0 0 100
0 0 100
0 0 100
0 0 100
0 0 100
0 0 100
0 0 100
0 0 100
0 0 100
0 0 10000
0 0 10000
0 0 10000
0 0 10000
0 0 10000
0 0 100
0 0 100
0 0 100
0 0 100
0 0 100
0 0 100
0 0 100
0 0 100
0 0 100
0 0 100
0 0 100
0 0 100
0 0 100
0 0 100
0 0 100
0 0 100
0 0 100
0 0 100
0 0 100
0 0 100
0 0 10000
0 0 10000
0 0 10000
0 0 10000
0 0 10000
0 0 10000
0 0 10000
0 0 10000
0 0 10000
0 0 10000
0 0 10000
0 0 10000
0 0 10000
0 0 10000
0 0 10000
0 0 10000
0 0 10000
0 0 10000
0 0 10000
0 0 10000
0 0 10000
0 0 10000
0 0 10000
0 0 10000
0 0 10000
0 0 10000
0 0 10000
0 0 10000
0 0 10000
0 0 10000
0 0 10000
0 0 100
0 0 100
0 0 100
0 0 100
0 0 50000
0 0 50000
0 0 50000
0 0 50000
0 0 50000
0 300 1200
0 300 1200
0 300 1200
0 300 1200
0 300 1200
0 0 1e+05
0 0 1e+05
0 0 1e+05
0 0 1e+05
0 0 1e+05
0 0 1e+05
0 0 1e+05
0 0 1e+05
0 0 1e+05
0 0 1e+05
0 0 10000
0 0 10000
0 0 10000
0 0 10000
0 0 10000
x100
0 7731
1 7731
2 7731
3 7731
4 7731
5 1
6 1
7 1
8 1
9 1
10 1
11 1
12 1
13 1
14 1
15 1
16 1
17 1
18 1
19 1
20 1
21 1
22 1
23 1
24 1
25 7731
26 7731
27 7731
28 7731
29 7731
30 1
31 1
32 1
33 1
34 1
35 1
36 1
37 1
38 1
39 1
40 1
41 1
42 1
43 1
44 1
45 1
46 1
47 1
48 1
49 1
50 7731
51 7731
52 7731
53 7731
54 7731
55 7731
56 7731
57 7731
58 7731
59 7731
60 7731
61 7731
62 7731
63 7731
64 7731
65 7731
66 7731
67 7731
68 7731
69 7731
70 7731
71 7731
72 7731
73 7731
74 7731
75 7731
76 7731
77 7731
78 7731
79 7731
80 7731
81 1
82 1
83 1
84 1
85 1
86 1
87 1
88 1
89 1
90 1200
91 1200
92 1200
93 1200
94 1200
105 7731
106 7731
107 7731
108 7731
109 7731
r
4 0
4 0
4 0
4 0
4 0
4 0
4 0
4 0
4 0
4 0
4 0
4 0
4 0
4 0
4 0
4 0
4 0
4 0
4 0
4 0
4 0
4 0
4 0
4 0
4 0
4 0
4 0
4 0
4 0
4 0
4 0
4 0
4 0
4 0
4 0
4 0
4 0
4 0
4 0
4 0
4 0
4 0
4 0
4 0
4 0
4 0
4 0
4 0
4 0
4 0
4 0
4 0
4 0
4 0
4 -7731
4 0
4 0
4 0
4 0
4 0
4 0
4 0
4 0
4 0
4 0
4 0
4 0
4 0
4 0
4 0
4 0
C0
o16
o54
6
o16
o2
v5
v0
o2
v30
v50
o2
v34
v55
o2
v38
v60
o2
v42
v65
o2
v46
v70
C1
o16
o54
6
o16
o2
v6
v0
o2
v31
v50
o2
v35
v55
o2
v39
v60
o2
v43
v65
o2
v47
v70
C2
o16
o54
6
o16
o2
v7
v0
o2
v32
v50
o2
v36
v55
o2
v40
v60
o2
v44
v65
o2
v48
v70
C3
o16
o54
6
o16
o2
v8
v0
o2
v33
v50
o2
v37
v55
o2
v41
v60
o2
v45
v65
o2
v49
v70
C4
o16
o54
6
o16
o2
v9
v1
o2
v30
v51
o2
v34
v56
o2
v38
v61
o2
v42
v66
o2
v46
v71
C5
o16
o54
6
o16
o2
v10
v1
o2
v31
v51
o2
v35
v56
o2
v39
v61
o2
v43
v66
o2
v47
v71
C6
o16
o54
6
o16
o2
v11
v1
o2
v32
v51
o2
v36
v56
o2
v40
v61
o2
v44
v66
o2
v48
v71
C7
o16
o54
6
o16
o2
v12
v1
o2
v33
v51
o2
v37
v56
o2
v41
v61
o2
v45
v66
o2
v49
v71
C8
o16
o54
6
o16
o2
v13
v2
o2
v30
v52
o2
v34
v57
o2
v38
v62
o2
v42
v67
o2
v46
v72
C9
o16
o54
6
o16
o2
v14
v2
o2
v31
v52
o2
v35
v57
o2
v39
v62
o2
v43
v67
o2
v47
v72
C10
o16
o54
6
o16
o2
v15
v2
o2
v32
v52
o2
v36
v57
o2
v40
v62
o2
v44
v67
o2
v48
v72
C11
o16
o54
6
o16
o2
v16
v2
o2
v33
v52
o2
v37
v57
o2
v41
v62
o2
v45
v67
o2
v49
v72
C12
o16
o54
6
o16
o2
v17
v3
o2
v30
v53
o2
v34
v58
o2
v38
v63
o2
v42
v68
o2
v46
v73
C13
o16
o54
6
o16
o2
v18
v3
o2
v31
v53
o2
v35
v58
o2
v39
v63
o2
v43
v68
o2
v47
v73
C14
o16
o54
6
o16
o2
v19
v3
o2
v32
v53
o2
v36
v58
o2
v40
v63
o2
v44
v68
o2
v48
v73
C15
o16
o54
6
o16
o2
v20
v3
o2
v33
v53
o2
v37
v58
o2
v41
v63
o2
v45
v68
o2
v49
v73
C16
o16
o54
6
o16
o2
v21
v4
o2
v30
v54
o2
v34
v59
o2
v38
v64
o2
v42
v69
o2
v46
v74
C17
o16
o54
6
o16
o2
v22
v4
o2
v31
v54
o2
v35
v59
o2
v39
v64
o2
v43
v69
o2
v47
v74
C18
o16
o54
6
o16
o2
v23
v4
o2
v32
v54
o2
v36
v59
o2
v40
v64
o2
v44
v69
o2
v48
v74
C19
o16
o54
6
o16
o2
v24
v4
o2
v33
v54
o2
v37
v59
o2
v41
v64
o2
v45
v69
o2
v49
v74
C20
o54
3
o2
v30
v25
o16
o2
v5
v0
o16
o2
v85
o1
v96
v95
C21
o54
3
o2
v31
v25
o16
o2
v6
v0
o16
o2
v85
o0
o2
n0.5
v96
o2
n-0.5
v95
C22
o54
3
o2
v32
v25
o16
o2
v7
v0
o16
o2
v85
o1
v95
v96
C23
o1
o2
v33
v25
o2
v8
v0
C24
o54
3
o2
v34
v26
o16
o2
v9
v1
o16
o2
v86
o1
v98
v97
C25
o54
3
o2
v35
v26
o16
o2
v10
v1
o16
o2
v86
o0
o2
n0.5
v98
o2
n-0.5
v97
C26
o54
3
o2
v36
v26
o16
o2
v11
v1
o16
o2
v86
o1
v97
v98
C27
o1
o2
v37
v26
o2
v12
v1
C28
o54
3
o2
v38
v27
o16
o2
v13
v2
o16
o2
v87
o1
v100
v99
C29
o54
3
o2
v39
v27
o16
o2
v14
v2
o16
o2
v87
o0
o2
n0.5
v100
o2
n-0.5
v99
C30
o54
3
o2
v40
v27
o16
o2
v15
v2
o16
o2
v87
o1
v99
v100
C31
o1
o2
v41
v27
o2
v16
v2
C32
o54
3
o2
v42
v28
o16
o2
v17
v3
o16
o2
v88
o1
v102
v101
C33
o54
3
o2
v43
v28
o16
o2
v18
v3
o16
o2
v88
o0
o2
n0.5
v102
o2
n-0.5
v101
C34
o54
3
o2
v44
v28
o16
o2
v19
v3
o16
o2
v88
o1
v101
v102
C35
o1
o2
v45
v28
o2
v20
v3
C36
o54
3
o2
v46
v29
o16
o2
v21
v4
o16
o2
v89
o1
v104
v103
C37
o54
3
o2
v47
v29
o16
o2
v22
v4
o16
o2
v89
o0
o2
n0.5
v104
o2
n-0.5
v103
C38
o54
3
o2
v48
v29
o16
o2
v23
v4
o16
o2
v89
o1
v103
v104
C39
o1
o2
v49
v29
o2
v24
v4
C40
o3
o2
o2
o2
n-6.284e+11
o44
o3
n-15500
v90
o39
v30
v31
o5
o54
4
v30
v31
v32
v33
n1.5
C41
o3
o2
o2
o2
n-6.284e+11
o44
o3
n-15500
v91
o39
v34
v35
o5
o54
4
v34
v35
v36
v37
n1.5
C42
o3
o2
o2
o2
n-6.284e+11
o44
o3
n-15500
v92
o39
v38
v39
o5
o54
4
v38
v39
v40
v41
n1.5
C43
o3
o2
o2
o2
n-6.284e+11
o44
o3
n-15500
v93
o39
v42
v43
o5
o54
4
v42
v43
v44
v45
n1.5
C44
o3
o2
o2
o2
n-6.284e+11
o44
o3
n-15500
v94
o39
v46
v47
o5
o54
4
v46
v47
v48
v49
n1.5
C45
o3
o3
o2
o2
o2
n-2.732e+16
o44
o3
n-26799.5
v90
o39
v31
v32
o39
v30
o54
4
v30
v31
v32
v33
C46
o3
o3
o2
o2
o2
n-2.732e+16
o44
o3
n-26799.5
v91
o39
v35
v36
o39
v34
o54
4
v34
v35
v36
v37
C47
o3
o3
o2
o2
o2
n-2.732e+16
o44
o3
n-26799.5
v92
o39
v39
v40
o39
v38
o54
4
v38
v39
v40
v41
C48
o3
o3
o2
o2
o2
n-2.732e+16
o44
o3
n-26799.5
v93
o39
v43
v44
o39
v42
o54
4
v42
v43
v44
v45
C49
o3
o3
o2
o2
o2
n-2.732e+16
o44
o3
n-26799.5
v94
o39
v47
v48
o39
v46
o54
4
v46
v47
v48
v49
C50
o16
o54
6
o16
o2
v80
v81
o2
v75
v30
o2
v76
v34
o2
v77
v38
o2
v78
v42
o2
v79
v46
C51
o16
o54
6
o16
o2
v80
v82
o2
v75
v31
o2
v76
v35
o2
v77
v39
o2
v78
v43
o2
v79
v47
C52
o16
o54
6
o16
o2
v80
v83
o2
v75
v32
o2
v76
v36
o2
v77
v40
o2
v78
v44
o2
v79
v48
C53
o16
o54
6
o16
o2
v80
v84
o2
v75
v33
o2
v76
v37
o2
v77
v41
o2
v78
v45
o2
v79
v49
C54
n0
C55
n0
C56
n0
C57
n0
C58
n0
C59
n0
C60
n0
C61
n0
C62
n0
C63
n0
C64
n0
C65
n0
C66
n0
C67
n0
C68
n0
C69
n0
C70
n0
O0 0
n0
k109
10
20
30
40
50
52
54
56
58
60
62
64
66
68
70
72
74
76
78
80
82
84
86
88
90
96
102
108
114
120
129
138
147
156
165
174
183
192
201
210
219
228
237
246
255
264
273
282
291
300
306
312
318
324
330
336
342
348
354
360
366
372
378
384
390
396
402
408
414
420
426
432
438
444
450
456
462
468
474
480
485
486
487
488
489
492
495
498
501
504
506
508
510
512
514
518
522
526
530
534
538
542
546
550
554
559
564
569
574
J0 13
0 0
5 0
30 0
34 0
38 0
42 0
46 0
50 0
55 0
60 0
65 0
70 0
105 -2.5
J1 13
0 0
6 0
31 0
35 0
39 0
43 0
47 0
50 0
55 0
60 0
65 0
70 0
105 -3.46
J2 12
0 0
7 0
32 0
36 0
40 0
44 0
48 0
50 0
55 0
60 0
65 0
70 0
J3 13
0 0
8 0
33 0
37 0
41 0
45 0
49 0
50 0
55 0
60 0
65 0
70 0
105 -26.05
J4 13
1 0
9 0
30 0
34 0
38 0
42 0
46 0
51 0
56 0
61 0
66 0
71 0
106 -2.5
J5 13
1 0
10 0
31 0
35 0
39 0
43 0
47 0
51 0
56 0
61 0
66 0
71 0
106 -3.46
J6 12
1 0
11 0
32 0
36 0
40 0
44 0
48 0
51 0
56 0
61 0
66 0
71 0
J7 13
1 0
12 0
33 0
37 0
41 0
45 0
49 0
51 0
56 0
61 0
66 0
71 0
106 -26.05
J8 13
2 0
13 0
30 0
34 0
38 0
42 0
46 0
52 0
57 0
62 0
67 0
72 0
107 -2.5
J9 13
2 0
14 0
31 0
35 0
39 0
43 0
47 0
52 0
57 0
62 0
67 0
72 0
107 -3.46
J10 12
2 0
15 0
32 0
36 0
40 0
44 0
48 0
52 0
57 0
62 0
67 0
72 0
J11 13
2 0
16 0
33 0
37 0
41 0
45 0
49 0
52 0
57 0
62 0
67 0
72 0
107 -26.05
J12 13
3 0
17 0
30 0
34 0
38 0
42 0
46 0
53 0
58 0
63 0
68 0
73 0
108 -2.5
J13 13
3 0
18 0
31 0
35 0
39 0
43 0
47 0
53 0
58 0
63 0
68 0
73 0
108 -3.46
J14 12
3 0
19 0
32 0
36 0
40 0
44 0
48 0
53 0
58 0
63 0
68 0
73 0
J15 13
3 0
20 0
33 0
37 0
41 0
45 0
49 0
53 0
58 0
63 0
68 0
73 0
108 -26.05
J16 13
4 0
21 0
30 0
34 0
38 0
42 0
46 0
54 0
59 0
64 0
69 0
74 0
109 -2.5
J17 13
4 0
22 0
31 0
35 0
39 0
43 0
47 0
54 0
59 0
64 0
69 0
74 0
109 -3.46
J18 12
4 0
23 0
32 0
36 0
40 0
44 0
48 0
54 0
59 0
64 0
69 0
74 0
J19 13
4 0
24 0
33 0
37 0
41 0
45 0
49 0
54 0
59 0
64 0
69 0
74 0
109 -26.05
J20 7
0 0
5 0
25 0
30 0
85 0
95 0
96 0
J21 7
0 0
6 0
25 0
31 0
85 0
95 0
96 0
J22 7
0 0
7 0
25 0
32 0
85 0
95 0
96 0
J23 4
0 0
8 0
25 0
33 0
J24 7
1 0
9 0
26 0
34 0
86 0
97 0
98 0
J25 7
1 0
10 0
26 0
35 0
86 0
97 0
98 0
J26 7
1 0
11 0
26 0
36 0
86 0
97 0
98 0
J27 4
1 0
12 0
26 0
37 0
J28 7
2 0
13 0
27 0
38 0
87 0
99 0
100 0
J29 7
2 0
14 0
27 0
39 0
87 0
99 0
100 0
J30 7
2 0
15 0
27 0
40 0
87 0
99 0
100 0
J31 4
2 0
16 0
27 0
41 0
J32 7
3 0
17 0
28 0
42 0
88 0
101 0
102 0
J33 7
3 0
18 0
28 0
43 0
88 0
101 0
102 0
J34 7
3 0
19 0
28 0
44 0
88 0
101 0
102 0
J35 4
3 0
20 0
28 0
45 0
J36 7
4 0
21 0
29 0
46 0
89 0
103 0
104 0
J37 7
4 0
22 0
29 0
47 0
89 0
103 0
104 0
J38 7
4 0
23 0
29 0
48 0
89 0
103 0
104 0
J39 4
4 0
24 0
29 0
49 0
J40 6
30 0
31 0
32 0
33 0
90 0
95 1
J41 6
34 0
35 0
36 0
37 0
91 0
97 1
J42 6
38 0
39 0
40 0
41 0
92 0
99 1
J43 6
42 0
43 0
44 0
45 0
93 0
101 1
J44 6
46 0
47 0
48 0
49 0
94 0
103 1
J45 6
30 0
31 0
32 0
33 0
90 0
96 1
J46 6
34 0
35 0
36 0
37 0
91 0
98 1
J47 6
38 0
39 0
40 0
41 0
92 0
100 1
J48 6
42 0
43 0
44 0
45 0
93 0
102 1
J49 6
46 0
47 0
48 0
49 0
94 0
104 1
J50 12
30 0
34 0
38 0
42 0
46 0
75 0
76 0
77 0
78 0
79 0
80 0
81 0
J51 12
31 0
35 0
39 0
43 0
47 0
75 0
76 0
77 0
78 0
79 0
80 0
82 0
J52 12
32 0
36 0
40 0
44 0
48 0
75 0
76 0
77 0
78 0
79 0
80 0
83 0
J53 12
33 0
37 0
41 0
45 0
49 0
75 0
76 0
77 0
78 0
79 0
80 0
84 0
J54 5
105 -1
106 -1
107 -1
108 -1
109 -1
J55 7
0 1
50 -1
55 -1
60 -1
65 -1
70 -1
105 -1
J56 7
1 1
51 -1
56 -1
61 -1
66 -1
71 -1
106 -1
J57 7
2 1
52 -1
57 -1
62 -1
67 -1
72 -1
107 -1
J58 7
3 1
53 -1
58 -1
63 -1
68 -1
73 -1
108 -1
J59 7
4 1
54 -1
59 -1
64 -1
69 -1
74 -1
109 -1
J60 2
0 -1
25 1
J61 2
1 -1
26 1
J62 2
2 -1
27 1
J63 2
3 -1
28 1
J64 2
4 -1
29 1
J65 7
25 1
50 -1
51 -1
52 -1
53 -1
54 -1
75 -1
J66 7
26 1
55 -1
56 -1
57 -1
58 -1
59 -1
76 -1
J67 7
27 1
60 -1
61 -1
62 -1
63 -1
64 -1
77 -1
J68 7
28 1
65 -1
66 -1
67 -1
68 -1
69 -1
78 -1
J69 7
29 1
70 -1
71 -1
72 -1
73 -1
74 -1
79 -1
J70 6
75 -1
76 -1
77 -1
78 -1
79 -1
80 1
G0 1
83 -1
